DATASET = "thpack2";
INSTANCE = "026";

WIDTH = 233;
HEIGHT = 220;
LENGTH = 587;

NO_OF_SHAPES = 5;
size = [|
  86,71,41 |
  75,58,58 |
  100,81,27 |
  59,42,24 |
  69,37,30 |
|];

verticality = [|
  0,1,1 |
  1,1,1 |
  0,0,1 |
  0,1,1 |
  0,1,1 |
|];

box_count = [
  41,
  35,
  29,
  29,
  35,
];
